************************************************************************
file with basedata            : n/a
initial value random generator: n/a
************************************************************************
projects                      :  1
jobs (incl. supersource/sink ):  32
horizon                       :  187
RESOURCES
  - renewable                 :  4   R
  - nonrenewable              :  0   N
  - doubly constrained        :  0   D
************************************************************************
PROJECT INFORMATION:
pronr.  #jobs rel.date duedate tardcost  MPM-Time
    1     30      0       60        1       60
************************************************************************
PRECEDENCE RELATIONS:
jobnr.    #modes  #successors   successors
   1        1          3           2   3   4
   2        1          2           6   8
   3        1          3           5   6   7
   4        1          3          16  18  22
   5        1          3          11  12  25
   6        1          1           9
   7        1          3          12  16  20
   8        1          2           9  16
   9        1          3          10  22  26
  10        1          3          23  25  29
  11        1          2          14  22
  12        1          3          13  15  31
  13        1          2          17  24
  14        1          2          15  21
  15        1          1          27
  16        1          2          17  19
  17        1          1          27
  18        1          2          26  29
  19        1          1          25
  20        1          3          23  27  29
  21        1          1          31
  22        1          2          24  28
  23        1          1          24
  24        1          1          30
  25        1          2          28  30
  26        1          1          28
  27        1          1          30
  28        1          1          31
  29        1          1          32
  30        1          1          32
  31        1          1          32
  32        1          0        
************************************************************************
REQUESTS/DURATIONS:
jobnr. mode duration  R 1  R 2  R 3  R 4
------------------------------------------------------------------------
  1      1     0    
  2      1    10       2   2   2   2   2   2   2   2   2   2
                       3   3   3   3   3   3   3   3   3   3
                       9   9   9   9   9   9   9   9   9   9
                       6   6   6   6   6   6   6   6   6   6
  3      1     9       0  10  10  10   0  10  10  10  10
                       0   4   4   4   0   4   4   4   4
                       0   1   1   1   0   1   1   1   1
                       0   6   6   6   0   6   6   6   6
  4      1     8       5   5   5   5   5   5   5   5
                       9   9   9   9   9   9   9   9
                       2   2   2   2   2   2   2   2
                       6   6   6   6   6   6   6   6
  5      1     6       0   4   0   4   4   4
                       0   6   0   6   6   6
                       0   3   0   3   3   3
                       0   6   0   6   6   6
  6      1     1       2
                       5
                       8
                       7
  7      1    10       2   2   2   2   2   2   2   0   2   2
                      10  10  10  10  10  10  10   0  10  10
                       8   8   8   8   8   8   8   0   8   8
                       5   5   5   5   5   5   5   0   5   5
  8      1    10       5   5   5   5   5   5   5   5   5   5
                       3   3   3   3   3   3   3   3   3   3
                       4   4   4   4   4   4   4   4   4   4
                       6   6   6   6   6   6   6   6   6   6
  9      1    10       4   0   4   4   4   4   4   4   4   4
                       3   0   3   3   3   3   3   3   3   3
                       2   0   2   2   2   2   2   2   2   2
                       7   0   7   7   7   7   7   7   7   7
 10      1     8       9   9   0   9   9   9   9   9
                       5   5   0   5   5   5   5   5
                       4   4   0   4   4   4   4   4
                       3   3   0   3   3   3   3   3
 11      1     4       4   4   4   0
                       4   4   4   0
                       7   7   7   0
                       7   7   7   0
 12      1    10       0   1   1   0   1   1   1   1   1   0
                       0   7   7   0   7   7   7   7   7   0
                       0   7   7   0   7   7   7   7   7   0
                       0   5   5   0   5   5   5   5   5   0
 13      1     4       6   6   6   6
                       5   5   5   5
                       2   2   2   2
                       6   6   6   6
 14      1     8       3   3   3   3   3   3   3   3
                       2   2   2   2   2   2   2   2
                       5   5   5   5   5   5   5   5
                      10  10  10  10  10  10  10  10
 15      1     9       3   3   3   3   3   3   3   3   3
                       5   5   5   5   5   5   5   5   5
                       7   7   7   7   7   7   7   7   7
                       5   5   5   5   5   5   5   5   5
 16      1     1       1
                       5
                       8
                       7
 17      1    10       5   5   5   5   5   5   5   5   5   5
                       3   3   3   3   3   3   3   3   3   3
                       6   6   6   6   6   6   6   6   6   6
                       3   3   3   3   3   3   3   3   3   3
 18      1     1       8
                       8
                       2
                       7
 19      1     4       7   7   7   7
                       9   9   9   9
                       9   9   9   9
                       2   2   2   2
 20      1     2       9   9
                       1   1
                       9   9
                       1   1
 21      1     7       4   4   4   4   4   4   4
                       5   5   5   5   5   5   5
                       9   9   9   9   9   9   9
                       4   4   4   4   4   4   4
 22      1     2       4   4
                       3   3
                       4   4
                       7   7
 23      1     8       0   5   5   5   5   5   0   5
                       0   3   3   3   3   3   0   3
                       0   2   2   2   2   2   0   2
                       0   8   8   8   8   8   0   8
 24      1     6       5   5   5   5   5   5
                       4   4   4   4   4   4
                       9   9   9   9   9   9
                       1   1   1   1   1   1
 25      1     5       3   3   3   3   3
                       6   6   6   6   6
                       1   1   1   1   1
                       5   5   5   5   5
 26      1     6       4   0   4   4   4   4
                       2   0   2   2   2   2
                      10   0  10  10  10  10
                       7   0   7   7   7   7
 27      1     5       4   4   4   4   4
                       3   3   3   3   3
                      10  10  10  10  10
                       9   9   9   9   9
 28      1     2       1   0
                       9   0
                       9   0
                       3   0
 29      1     7       7   0   7   7   7   7   7
                       3   0   3   3   3   3   3
                       7   0   7   7   7   7   7
                       2   0   2   2   2   2   2
 30      1     8       6   6   6   6   6   6   6   6
                       3   3   3   3   3   3   3   3
                      10  10  10  10  10  10  10  10
                       3   3   3   3   3   3   3   3
 31      1     6       0  10  10  10  10   0
                       0   5   5   5   5   0
                       0   6   6   6   6   0
                       0   1   1   1   1   0
 32      1     0    
************************************************************************
RESOURCEAVAILABILITIES:
  R 1  R 2  R 3  R 4

  30  30  30  30  30  30  30  30  30  30  30  30  30   0  30   0  30   0  30  30  30  30  30  30  30  30  30  30  30  30  30  30  30  30  30  30  30  30  30  30  30  30  30  30  30  30   0  30  30  30  30   0  30   0  30  30  30  30  30  30  30  30  30  30  30  30  30  30  30  30  30  30   0  30   0  30  30  30  30  30  30  30  30  30   0  30   0  30  30  30  30  30  30  30  30  30  30   0  30  30  30  30  30  30  30  30  30  30  30  30  30  30   0  30  30  30  30  30  30  30  30  30  30  30  30  30  30  30  30  30   0  30  30  30  30  30  30  30  30  30  30  30  30  30  30  30  30  30  30   0   0  30  30  30  30   0  30  30  30  30  30  30  30  30   0  30  30  30  30  30  30  30  30  30  30  30  30  30  30  30  30  30  30  30   0  30  30

  25  25  25  25  25  25  25  25  25  25  25  25  25   0  25   0  25   0  25  25  25  25  25  25  25  25  25  25  25  25  25  25  25  25  25  25  25  25  25  25  25  25  25  25  25  25   0  25  25  25  25   0  25   0  25  25  25  25  25  25  25  25  25  25  25  25  25  25  25  25  25  25   0  25   0  25  25  25  25  25  25  25  25  25   0  25   0  25  25  25  25  25  25  25  25  25  25   0  25  25  25  25  25  25  25  25  25  25  25  25  25  25   0  25  25  25  25  25  25  25  25  25  25  25  25  25  25  25  25  25   0  25  25  25  25  25  25  25  25  25  25  25  25  25  25  25  25  25  25   0   0  25  25  25  25   0  25  25  25  25  25  25  25  25   0  25  25  25  25  25  25  25  25  25  25  25  25  25  25  25  25  25  25  25   0  25  25

  36  36  36  36  36  36  36  36  36  36  36  36  36   0  36   0  36   0  36  36  36  36  36  36  36  36  36  36  36  36  36  36  36  36  36  36  36  36  36  36  36  36  36  36  36  36   0  36  36  36  36   0  36   0  36  36  36  36  36  36  36  36  36  36  36  36  36  36  36  36  36  36   0  36   0  36  36  36  36  36  36  36  36  36   0  36   0  36  36  36  36  36  36  36  36  36  36   0  36  36  36  36  36  36  36  36  36  36  36  36  36  36   0  36  36  36  36  36  36  36  36  36  36  36  36  36  36  36  36  36   0  36  36  36  36  36  36  36  36  36  36  36  36  36  36  36  36  36  36   0   0  36  36  36  36   0  36  36  36  36  36  36  36  36   0  36  36  36  36  36  36  36  36  36  36  36  36  36  36  36  36  36  36  36   0  36  36

  32  32  32  32  32  32  32  32  32  32  32  32  32   0  32   0  32   0  32  32  32  32  32  32  32  32  32  32  32  32  32  32  32  32  32  32  32  32  32  32  32  32  32  32  32  32   0  32  32  32  32   0  32   0  32  32  32  32  32  32  32  32  32  32  32  32  32  32  32  32  32  32   0  32   0  32  32  32  32  32  32  32  32  32   0  32   0  32  32  32  32  32  32  32  32  32  32   0  32  32  32  32  32  32  32  32  32  32  32  32  32  32   0  32  32  32  32  32  32  32  32  32  32  32  32  32  32  32  32  32   0  32  32  32  32  32  32  32  32  32  32  32  32  32  32  32  32  32  32   0   0  32  32  32  32   0  32  32  32  32  32  32  32  32   0  32  32  32  32  32  32  32  32  32  32  32  32  32  32  32  32  32  32  32   0  32  32

************************************************************************
